p tw 1457 1596
1 2
2 570
3 114
4 15
5 6
6 7
7 8
8 9
9 10
10 11
11 12
12 13
13 14
14 16
15 26
16 17
17 18
18 19
19 20
20 21
21 133
22 23
23 24
24 25
25 27
26 37
27 28
28 29
29 747
30 31
31 32
32 33
33 34
34 35
35 36
35 62
36 38
37 48
37 70
38 39
38 62
39 40
40 41
41 42
41 505
42 43
43 44
44 45
45 46
46 47
46 49
47 49
48 59
49 50
50 51
51 52
52 53
53 54
54 55
55 56
56 57
57 58
58 60
59 92
60 61
61 295
62 63
63 64
64 65
65 66
66 67
67 68
67 96
68 69
69 71
70 81
71 72
72 73
73 74
74 75
75 76
76 77
77 78
78 79
79 80
80 82
81 92
82 83
83 84
84 85
85 86
86 87
87 88
88 89
89 90
90 91
91 93
92 103
93 94
94 95
95 96
96 97
97 98
97 105
98 99
99 100
100 101
100 105
101 102
102 104
103 115
104 105
105 106
106 107
107 108
108 109
109 110
110 111
111 112
112 113
113 116
114 225
115 126
116 117
117 118
118 119
119 120
120 121
121 122
121 123
122 123
122 125
123 124
124 125
125 127
126 137
127 128
128 129
129 130
130 131
130 505
131 132
132 133
133 134
134 135
135 136
135 145
136 138
137 148
138 139
139 140
140 141
141 142
142 143
143 144
144 295
145 146
146 147
147 149
147 162
148 159
149 150
150 151
151 152
152 153
153 154
154 155
155 156
156 157
157 158
158 160
159 170
160 161
161 295
162 163
163 164
163 184
164 165
165 166
165 168
166 167
167 168
168 169
169 171
170 181
171 172
172 173
172 182
173 174
174 175
175 176
176 177
176 178
177 178
178 179
179 180
180 184
181 192
182 183
183 184
184 185
185 186
186 187
187 188
188 189
189 190
189 200
190 191
191 193
192 203
192 1090
193 194
193 200
194 195
195 196
196 197
197 198
198 199
199 297
200 201
201 202
202 204
202 505
203 214
204 205
205 206
206 207
207 208
208 209
209 297
210 211
211 212
212 213
212 505
213 215
214 226
214 325
215 216
216 217
217 505
218 219
219 220
219 222
220 221
221 222
222 223
223 224
224 227
225 336
226 237
227 228
228 229
229 230
229 247
230 231
231 232
231 239
232 233
233 234
234 235
235 236
236 238
237 248
237 392
238 241
239 240
240 241
241 242
242 243
243 244
244 245
245 246
246 289
247 249
248 259
249 250
250 251
250 255
251 252
252 253
253 254
254 505
255 256
256 257
256 505
257 289
258 260
259 270
259 55
260 261
260 263
261 262
262 263
263 264
264 265
265 266
266 267
267 268
268 269
268 278
269 271
270 281
271 272
272 273
273 274
274 275
275 276
276 277
277 289
278 279
279 280
279 505
280 289
281 292
281 55
282 283
283 284
284 285
284 505
285 286
286 287
287 288
288 505
289 290
290 291
291 293
292 303
293 294
294 295
295 296
296 297
297 298
298 299
299 300
300 301
301 302
302 304
303 314
303 55
304 305
305 306
306 307
307 308
308 309
309 310
310 311
311 312
312 313
313 315
314 505
315 316
316 317
317 318
318 319
319 320
320 321
321 322
322 323
323 324
324 326
325 337
326 327
327 328
328 329
329 330
330 331
331 332
332 333
333 334
334 335
335 338
336 447
337 348
338 339
339 340
340 341
341 342
342 343
343 344
344 345
345 346
346 347
347 349
348 359
349 350
350 351
351 352
352 353
353 354
354 355
355 356
356 357
357 358
358 360
359 370
360 361
361 362
362 363
363 364
364 365
365 366
366 367
367 368
368 369
369 371
370 381
371 372
372 373
373 374
374 375
375 376
376 377
377 378
378 379
379 380
380 382
381 1096
382 383
383 384
384 385
385 386
386 387
387 388
388 389
389 390
390 391
391 393
392 403
393 394
394 395
395 396
396 397
397 398
398 399
399 400
400 401
401 402
401 412
402 404
403 414
404 405
405 406
406 407
407 408
408 409
409 410
410 411
411 422
412 413
413 415
414 425
415 416
416 417
417 418
418 419
419 420
420 421
421 422
422 423
423 424
424 426
425 187
426 427
427 428
428 429
429 430
430 431
431 432
432 433
433 434
434 435
435 437
436 448
437 438
438 439
439 440
440 441
441 442
442 443
443 444
444 445
445 446
446 449
447 515
447 582
448 459
449 450
450 451
451 452
452 453
453 454
454 455
455 456
456 457
457 458
458 460
459 470
460 461
461 462
462 463
463 464
464 465
465 466
466 467
467 468
468 469
469 471
470 481
470 505
471 472
472 473
473 474
474 475
475 476
476 477
477 478
478 479
479 480
480 482
481 492
482 483
483 484
484 485
485 486
486 487
487 488
488 489
489 490
490 491
491 493
492 503
493 494
494 495
495 496
496 497
497 498
498 499
499 500
500 501
501 502
502 504
503 133
504 509
505 506
506 507
507 508
508 509
509 510
511 512
512 513
513 514
514 516
514 505
515 526
516 517
517 518
518 519
519 520
520 521
521 522
522 523
523 524
524 525
525 527
526 537
527 528
528 529
529 530
530 531
530 505
531 532
532 533
533 534
534 535
535 536
536 538
537 548
537 582
538 539
539 540
540 541
541 542
542 543
543 544
544 545
545 546
546 547
546 505
547 549
548 559
549 550
550 551
551 552
551 505
552 553
553 554
554 555
555 556
556 557
557 558
557 565
558 560
559 571
560 561
561 562
562 563
563 564
564 565
564 581
565 566
566 567
567 568
568 569
569 572
570 681
571 133
572 573
573 574
573 505
574 575
575 576
576 577
577 578
578 579
579 580
580 581
580 505
581 583
582 593
583 584
584 585
585 586
585 505
586 587
587 588
588 589
589 590
590 591
590 663
591 592
592 594
593 604
594 595
595 596
596 597
596 505
597 598
598 599
599 600
600 601
601 602
601 505
602 603
603 605
604 615
604 505
605 606
606 607
607 608
608 609
609 610
610 611
611 612
611 622
612 613
613 614
614 616
615 626
616 617
617 618
618 619
619 620
620 621
621 632
622 623
623 624
624 625
625 627
626 637
627 628
628 629
629 630
630 631
631 632
632 633
633 634
634 635
635 636
636 638
637 648
638 639
639 640
640 641
641 642
642 643
643 644
644 645
645 646
646 647
647 649
648 659
649 650
650 651
651 652
652 653
653 654
654 655
655 656
656 657
657 658
658 660
659 1096
660 661
661 662
662 462
663 664
664 665
665 666
666 667
666 505
667 668
668 669
669 671
670 682
671 672
671 505
672 673
673 674
674 675
675 676
675 505
676 677
677 678
678 679
679 680
680 683
681 792
682 693
683 684
684 685
685 686
685 723
686 687
687 688
688 689
688 719
689 690
690 691
691 692
692 694
693 704
693 511
694 695
695 696
696 697
696 719
697 698
698 699
699 700
700 701
701 702
702 703
703 705
703 719
704 715
705 706
706 707
707 708
708 709
709 710
710 711
710 719
711 712
712 713
713 714
714 716
715 726
716 717
717 718
718 719
718 1132
719 720
720 721
721 722
722 680
723 724
724 725
725 727
726 737
727 728
728 729
729 730
730 731
730 747
731 732
732 733
733 734
734 735
735 736
736 738
737 748
738 739
739 740
740 741
741 742
742 743
743 744
743 898
744 745
745 746
746 747
746 736
747 749
748 759
749 750
750 751
751 752
752 753
753 754
753 505
754 755
755 756
756 757
757 758
758 760
759 770
759 915
760 761
761 762
762 763
763 764
764 765
765 766
766 767
767 768
768 769
769 771
770 781
771 772
772 773
773 774
774 775
775 776
776 777
777 778
778 779
779 780
780 782
781 793
782 783
783 784
784 785
785 786
786 787
787 788
788 789
789 790
790 791
791 794
792 903
793 804
794 795
795 796
796 797
797 798
798 799
799 800
800 801
801 802
802 803
803 805
804 815
805 806
806 807
807 808
808 809
809 810
810 811
811 812
812 813
813 814
814 816
815 826
815 915
816 817
817 818
818 819
819 820
820 821
821 822
822 823
823 824
824 825
825 827
826 837
827 828
828 829
829 830
830 831
831 832
832 833
833 834
833 856
834 835
835 836
836 838
837 848
838 839
839 840
840 841
841 842
841 856
842 843
843 844
844 845
845 846
846 847
847 849
848 859
849 850
849 856
850 851
851 852
852 853
853 854
854 855
855 856
856 857
857 858
858 860
859 870
860 861
861 862
862 863
863 864
864 865
865 866
866 867
867 868
868 869
869 871
870 881
870 915
871 872
872 873
873 874
874 875
875 876
876 877
877 878
878 879
879 880
880 882
881 892
882 883
883 884
884 885
885 886
886 887
887 888
888 889
889 890
890 891
891 893
892 904
893 894
894 895
895 896
896 897
897 422
898 899
899 900
900 901
901 902
902 905
903 1014
904 915
905 906
906 907
907 908
908 909
909 910
909 913
910 911
911 912
912 934
913 914
914 916
915 926
916 917
916 930
917 918
917 924
918 919
919 920
920 921
921 922
922 923
923 924
923 930
924 925
925 927
926 937
927 928
928 929
929 930
930 931
931 932
932 933
933 934
933 901
934 935
935 936
935 505
936 938
937 948
938 939
939 940
940 941
941 942
942 943
943 944
944 945
945 946
946 947
947 949
948 959
949 950
950 951
951 952
952 953
953 954
954 955
955 956
956 957
957 958
958 960
959 970
960 961
961 962
962 963
963 964
964 965
965 966
966 967
967 968
968 969
969 971
970 981
971 972
972 973
973 974
974 975
975 976
976 977
977 978
978 979
979 980
980 982
981 992
981 1015
982 983
983 984
984 985
985 986
986 987
987 988
988 989
989 990
990 991
991 993
992 1003
993 994
994 995
995 996
996 997
997 998
998 999
999 1000
1000 1001
1001 1002
1002 1004
1003 1015
1003 1114
1004 1005
1005 1006
1006 1007
1007 1008
1008 1009
1009 1010
1010 1011
1011 1012
1012 1013
1013 1016
1014 1125
1015 1026
1016 1017
1017 1018
1018 1019
1019 1020
1020 1021
1021 1022
1022 1023
1023 1024
1024 1025
1024 1090
1025 1027
1026 1037
1027 1028
1028 1029
1029 1030
1030 1031
1031 1032
1032 1033
1033 1034
1034 1035
1035 1036
1036 1038
1037 1048
1038 1039
1038 1090
1039 1040
1040 1041
1041 1042
1042 1043
1042 1090
1043 1044
1044 1045
1044 1047
1045 1046
1046 1027
1047 1049
1048 1059
1049 1050
1050 1051
1050 1080
1051 1052
1052 1053
1053 1054
1054 1055
1055 1056
1055 1080
1056 1057
1057 1058
1058 1060
1059 1070
1060 1061
1061 1062
1062 1063
1063 1064
1064 1065
1065 1066
1066 1067
1067 1068
1068 1069
1069 1071
1070 1081
1071 1072
1071 1074
1072 1073
1073 1076
1074 1075
1075 1076
1076 1077
1077 1078
1078 1079
1079 1090
1080 1082
1081 1092
1081 505
1082 1083
1083 1084
1084 1085
1085 1086
1086 1087
1086 1090
1087 1088
1088 1089
1089 1027
1090 1091
1091 1093
1092 1103
1093 1094
1094 1095
1095 1096
1096 1097
1097 1098
1098 1099
1099 1100
1100 1101
1101 1102
1102 1104
1103 505
1104 1105
1105 1106
1106 1107
1107 1108
1108 1109
1109 1110
1110 1111
1111 1112
1112 1113
1113 1115
1114 1126
1115 1116
1116 1117
1117 1118
1118 1119
1119 1120
1120 1121
1121 1122
1122 1123
1123 1124
1124 1127
1125 1236
1126 1137
1126 505
1127 1128
1128 1129
1129 1130
1130 1131
1131 302
1132 1133
1133 1134
1134 1135
1135 1136
1136 1138
1137 1148
1138 1139
1139 1140
1140 1141
1140 1145
1141 1142
1142 1143
1143 1144
1144 505
1145 1146
1146 1147
1147 1149
1148 1159
1149 1150
1150 1151
1151 1152
1152 1153
1153 1154
1154 1155
1155 1156
1156 1157
1157 1158
1158 1160
1159 1170
1159 436
1160 1161
1160 1167
1161 1162
1162 1163
1163 1164
1164 1165
1165 1166
1166 1167
1166 1221
1167 1168
1168 1169
1169 1171
1170 1181
1171 1172
1172 1173
1173 1174
1173 1180
1174 1175
1175 1176
1176 1177
1177 1178
1178 1179
1179 1180
1179 1221
1180 1182
1181 1192
1182 1183
1182 1188
1183 1184
1184 1185
1185 1186
1186 1187
1187 1188
1187 1221
1188 1189
1189 1190
1190 1191
1191 1193
1192 1203
1193 1194
1194 1195
1195 1196
1196 1197
1196 289
1197 1198
1198 1199
1199 1200
1200 1201
1201 1202
1202 1204
1203 1214
1204 1205
1205 1206
1205 289
1206 1207
1207 1208
1208 1209
1209 1210
1210 1211
1211 1212
1212 1213
1212 289
1213 1215
1214 1225
1214 505
1215 1216
1216 1217
1217 1218
1218 1219
1219 1220
1220 1221
1220 289
1221 1222
1222 1223
1223 1224
1224 1226
1225 1237
1226 1227
1227 1228
1227 1326
1228 1229
1229 1230
1230 1231
1230 1326
1231 1232
1232 1233
1233 1234
1234 1235
1235 1238
1236 1347
1237 1248
1238 1239
1239 1240
1240 1241
1241 1242
1242 1243
1243 1244
1243 1326
1244 1245
1245 1246
1246 1247
1247 1249
1248 1259
1249 1250
1250 1251
1251 1252
1251 1326
1252 1253
1253 1254
1254 1255
1255 1256
1256 1257
1257 1258
1258 1260
1258 1326
1259 1270
1259 1359
1260 1261
1261 1262
1262 1263
1263 1264
1264 1265
1265 1266
1266 1267
1266 1326
1267 1268
1268 1269
1269 1271
1270 1281
1271 1272
1272 1273
1273 1274
1274 1275
1275 1276
1276 1277
1277 1278
1278 1279
1279 1280
1280 1282
1281 1292
1282 1283
1283 1284
1283 1318
1284 1285
1285 1286
1286 1287
1287 1288
1288 1289
1289 1290
1290 1291
1291 1293
1292 1303
1292 1325
1293 1294
1294 1295
1295 1296
1296 1297
1297 1298
1298 1299
1299 1300
1300 1301
1300 1302
1301 1302
1302 1304
1303 1314
1304 1305
1305 1306
1306 1307
1307 1308
1308 1309
1309 1310
1310 1311
1311 1312
1312 1313
1313 1315
1314 1325
1314 4
1315 1316
1316 1317
1317 1318
1318 1319
1319 1320
1320 1321
1321 1322
1322 1323
1323 1324
1324 1326
1325 1336
1326 1327
1327 1328
1328 1329
1329 1330
1330 1331
1331 1332
1331 505
1332 505
1332 1333
1332 1360
1332 30
1332 218
1332 258
1332 282
1332 289
1332 210
1333 1334
1334 1335
1335 1337
1335 1351
1336 1348
1337 1338
1338 1339
1339 1340
1340 1341
1341 1342
1341 1345
1342 1343
1343 1344
1344 1345
1345 1346
1346 1349
1347 3
1347 670
1348 1359
1348 4
1349 1350
1350 133
1351 1352
1352 1353
1353 1354
1354 1355
1355 1356
1356 1357
1357 1358
1357 505
1358 1090
1359 1370
1360 1361
1361 1362
1362 1363
1362 22
1363 1364
1364 1365
1365 1366
1366 1367
1367 1368
1368 1369
1368 22
1369 1371
1370 1381
1371 1372
1372 1373
1373 1374
1374 1375
1375 1376
1375 1441
1376 1377
1377 1378
1378 1379
1379 1380
1380 1382
1381 1392
1382 1383
1383 1384
1384 1385
1385 1386
1386 1387
1387 1388
1388 1389
1388 1441
1389 1390
1390 1391
1391 1393
1392 1403
1393 1394
1393 1441
1394 1395
1395 1396
1395 1398
1396 1397
1397 1377
1398 1399
1399 1400
1400 1401
1400 1431
1401 1402
1402 1404
1403 1414
1404 1405
1405 1406
1406 1407
1406 1431
1407 1408
1408 1409
1409 1410
1410 1411
1411 1412
1412 1413
1413 1415
1414 1425
1415 1416
1416 1417
1417 1418
1418 1419
1419 1420
1420 1421
1421 1422
1421 1424
1422 1423
1423 1427
1424 1426
1425 1436
1426 1427
1427 1428
1428 1429
1429 1430
1430 1441
1431 1432
1432 1433
1433 1434
1434 1435
1435 1437
1436 1447
1437 1438
1437 1441
1438 1439
1439 1440
1440 1377
1441 1442
1442 1443
1443 1444
1444 1445
1445 1446
1446 1448
1447 295
1448 1449
1449 1450
1450 1451
1451 1452
1452 1453
1453 1454
1454 1455
1455 1456
1456 1457
1457 5
